 4454  2517
 5929  9808
 5968  8393
 6091  7382
 3039  8270
 2329  9732
 7817  9549
 7044  6155
 8274  7893
 2936  1480
 7051  6737
 9424  8985
 7536  5277
   50  1795
 8188   175
 1035  9957
 2190  4736
 8363  5879
 5075  5937
 3222  1564
 2307  9476
 2927  1456
 8440  6795
 1377  8063
 2580  6667
 6785  9068
 7500  2175
 6356  1426
 3536  1572
 3506  7768
